NAME: mp7
TYPE: ATSP
DIMENSION: 7
BEST_KNOWN: 150
EDGE_WEIGHT_SECTION 
-1 5 23 22 93 13 78 
1 -1 97 50 61 56 31 
5 17 -1 25 91 60 57 
47 28 76 -1 53 99 61 
34 12 28 80 -1 77 34 
82 83 74 48 7 -1 51 
52 42 45 65 9 29 -1 
